p cnf 12 50 
-8 3 -2 0
3 12 -1 0
-7 6 3 0
9 7 -5 0
-8 12 -7 0
3 -10 1 0
8 11 3 0
7 -5 -1 0
6 3 -12 0
1 7 -8 0
-6 7 4 0
12 3 -4 0
-4 12 11 0
-12 -10 11 0
-6 1 -10 0
-9 -11 -10 0
-10 -11 8 0
-4 -1 -2 0
-2 -12 -9 0
-9 -12 -10 0
4 -12 10 0
6 -3 10 0
-6 -4 -5 0
-8 10 -7 0
-2 -11 -9 0
6 11 -7 0
-9 5 12 0
-2 11 1 0
10 -5 2 0
1 -10 12 0
10 -7 -12 0
-9 10 -7 0
6 12 1 0
3 -11 -6 0
12 11 4 0
-9 -3 6 0
8 -9 -6 0
11 5 8 0
4 8 -2 0
7 5 12 0
-11 -1 -6 0
-11 1 -7 0
11 -9 -12 0
-11 1 12 0
-2 -10 11 0
-2 -10 8 0
11 2 -7 0
11 -1 -9 0
-5 -10 8 0
-9 2 -12 0
